NAME: eil76
COMMENT: 76-city problem (Christofides/Eilon)
TYPE: TSP
DIMENSION: 76
EDGE_WEIGHT_TYPE: EUC_2D
NODE_COORD_SECTION
1 45 68
2 45 70
3 42 66
4 42 68
5 42 65
6 40 69
7 40 66
8 38 68
9 38 70
10 35 66
11 35 69
12 25 85
13 22 75
14 22 85
15 20 80
16 20 85
17 18 75
18 15 75
19 15 80
20 30 50
21 30 52
22 28 52
23 28 55
24 25 50
25 25 52
26 20 55
27 15 50
28 15 60
29 30 57
30 30 60
31 28 60
32 25 60
33 22 60
34 20 60
35 18 60
36 15 65
37 15 70
38 12 70
39 10 70
40 10 65
41 8 60
42 8 55
43 8 50
44 5 50
45 5 55
46 5 60
47 5 65
48 5 70
49 5 75
50 5 80
51 5 85
52 5 90
53 8 90
54 10 90
55 10 85
56 10 80
57 10 75
58 12 75
59 12 80
60 12 85
61 12 90
62 15 90
63 18 90
64 18 85
65 18 80
66 20 90
67 22 90
68 22 85
69 25 90
70 25 85
71 28 90
72 28 85
73 30 90
74 30 85
75 32 90
76 32 85
EOF
